%chk=c8b_2.chk
%nprocs=12
%mem=1gb
#p  hf/6-31g** pop=npa charge nosymm 

Atom number=19

0   1
c    -5.70334476    0.03350295   -0.55282649
h    -5.30663952    0.49443822    0.32755049
c    -5.17790776    0.76996336   -1.79907768
h    -5.48466583    1.79443926   -1.76374191
h    -5.57461301    0.30902809   -2.67945466
f    -5.31631356   -1.25906010   -0.59740900
c    -3.11457255    1.43180701   -3.07535251
h    -3.42133061    2.45628291   -3.04001674
c    -3.64000955    0.69534660   -1.82910132
h    -3.33325148   -0.32912931   -1.86443708
h    -3.24330430    1.15628186   -0.94872434
c    -1.57667433    1.35719024   -3.10537615
h    -1.26991626    0.33271434   -3.14071191
h    -1.17996909    1.81812551   -2.22499917
n    -1.07512083    2.06017518   -4.29497955
h    -1.36181061    3.01762929   -4.26195547
h    -0.07648562    2.01172274   -4.31447543
h    -6.77188443    0.08534706   -0.53196591
h    -3.51127779    0.97087174   -3.95572949

   -7.24124298     0.10811971    -0.52280285    -0.061835   
   -7.54800104     1.13259561    -0.48746708     0.183434   
   -7.63794822    -0.35281555    -1.40317983     0.186056   
   -7.72914876    -0.57573638     0.63443040    -0.807128   
   -8.68783856    -0.52922204     0.65314644     0.489623   


