%nproc=6
%njobs=4
#p hf/6-31g(d)

gebf{dis=3.0 frag=read}

0 1
 O                 -2.75537422    0.86053216   -1.83711762
 H                 -2.42222117    1.74670766   -1.67805151
 H                 -2.01842750    0.24913933   -1.90573495
 H                 -0.58752867   -0.50357296   -1.32491618
 O                 -1.18082912   -1.23365486   -1.13367028
 H                 -0.67502889   -2.04631851   -1.06056819
 H                 -3.30191739   -0.91639714   -1.47838913
 O                 -3.65414221   -1.40137688   -0.72850091
 H                 -2.93985475   -1.85957139   -0.27966772
 H                 -2.70323951    0.08323622   -0.01194499
 O                 -2.32648509    0.48762638    0.77299113
 H                 -3.02461052    0.89988650    1.28705579
 H                 -0.46161779   -0.67207022    0.55011263
 O                  0.03100394   -0.09685164    1.14006809
 H                 -0.58163132    0.41754047    1.67080229
 H                 -0.51762238    1.14088887   -0.21515803
 O                 -0.46073452    1.40157920   -1.13733174
 H                  0.43937205    1.66682322   -1.33994902
 H                 -5.57217482   -1.59382187   -0.70826017
 O                 -6.37476979   -1.29933074   -0.27154941
 H                 -6.81314147   -0.64209356   -0.81695711
 H                 -6.28946274    0.66777230    0.15860284
 O                 -7.13594633    1.10769046    0.05118983
 H                 -7.12855713    1.62236177   -0.75915506
 H                 -5.65517282    0.39336168    1.75107348
 O                 -4.85275612    0.23106677    1.24968761
 H                 -4.88215224   -0.65273708    0.87602115
 H                 -4.67507327    0.34960373   -0.77094580
 O                 -5.24592673    0.61137738   -1.49703182
 H                 -4.70922881    0.84342237   -2.25841902
 H                 -7.77363852    0.35027750    1.68263584
 O                 -7.39552696   -0.44368656    2.06767184
 H                 -7.31730218   -1.12106214    1.39191803
 O                  2.04621781    1.21304781   -0.27479707
 H                  2.83359286    0.66559293   -0.31877078
 H                  1.62974115    1.10624896    0.58353923
 H                  3.82510461   -0.53159862    0.50344234
 O                  3.74572541   -1.04650818   -0.30288706
 H                  4.60520384   -1.40101032   -0.54210465
 H                  4.84476012    0.33216863   -1.17454249
 O                  5.77665124    0.19943111   -0.98596966
 H                  6.06471359    0.83881636   -0.33037330
 H                  4.09607540    1.20371756    1.43057668
 O                  4.33401172    1.53461569    0.56138583
 H                  3.69799506    2.19923751    0.28686688
 H                  1.43570595   -0.59562361   -0.17713611
 O                  1.23053521   -1.30525145   -0.79027011
 H                  2.04548113   -1.71393780   -1.09100021
 O                  2.62569435    0.09878318    1.88272309
 H                  3.31286027   -0.38562134    2.34614004
 H                  1.76644012   -0.25419569    2.12497932
 H                  7.16719132   -0.63646440    0.11607024
 O                  7.45769659   -0.13343136    0.88037676
 H                  8.36409151    0.15409687    0.74855961
 H                  7.49668784   -0.29115118   -1.70568008
 O                  8.38659354   -0.38239829   -1.35733856
 H                  9.00782872   -0.46608196   -2.08443133


