%chk=1.chk
#p hf/3-21g

title

0 1
 C                 -6.44811135    0.17580872   -0.08441040
 H                 -6.09145693   -0.83300128   -0.08441040
 H                 -6.09143851    0.68020691    0.78924110
 H                 -7.51811135    0.17582190   -0.08441040
 C                 -5.93476913    0.90176499   -1.34181537
 C                 -4.39477168    0.90418446   -1.34040810
 H                 -4.03652194   -0.10405921   -1.33905240
 H                 -4.03969715    1.41003717   -0.46694653
 C                 -3.88142847    1.62967130   -2.59808357
 H                 -4.23974620    2.63789075   -2.59947996
 H                 -2.81143039    1.63142370   -2.59706470
 H                 -4.23643547    1.12377124   -3.47154517
 C                 -6.44581113    0.17418438   -2.59921846
 H                 -6.40455708    0.83834976   -3.43712206
 H                 -5.83150530   -0.68063487   -2.79108402
 H                 -7.45644555   -0.14068833   -2.44309910
 C                 -6.45038262    2.35288206   -1.34322404
 H                 -7.48449120    2.36421997   -1.06865001
 H                 -5.88838062    2.93176851   -0.64041238
 H                 -6.33652681    2.77090096   -2.32158852

