%chk=1.chk
#p hf/3-21g

title

0 1
C                 -7.84232614   -0.30639684    1.37480598
H                 -7.48567172   -1.31520684    1.37480598
H                 -7.48565330    0.19800135    2.24845748
H                 -8.91232614   -0.30638366    1.37480598
C                 -7.32898392    0.41955943    0.11740101
H                 -7.68723485    1.42780311    0.11642226
H                 -7.68405856   -0.08596736   -0.75624919
C                 -5.78898647    0.42197890    0.11880828
H                 -5.43073673   -0.58626477    0.12016398
H                 -5.43391194    0.92783161    0.99226985
C                 -5.27564326    1.14746574   -1.13886719
H                 -5.63396099    2.15568519   -1.14026358
H                 -5.63065026    0.64156568   -2.01232879
C                 -3.73564603    1.14998789   -1.13740078              
H                 -3.37732916    0.14176815   -1.13599442
H                 -3.38063881    1.65589621   -0.26394405
C                 -3.22230280    1.87546295   -2.39508304
H                 -3.58062195    2.88368188   -2.39648975
H                 -2.15230472    1.87721687   -2.39406329
H                 -3.57730836    1.36955370   -3.26853990
