%chk=1.chk
#p hf/3-21g

title

0 1
 C                 -6.44811135    0.17580872   -0.08441040
 H                 -6.09145693   -0.83300128   -0.08441040
 H                 -6.09143851    0.68020691    0.78924110
 H                 -7.51811135    0.17582190   -0.08441040
 C                 -5.93476913    0.90176499   -1.34181537
 H                 -6.28984377    0.39623820   -2.21546557
 C                 -4.39477168    0.90418446   -1.34040810
 H                 -4.03652194   -0.10405921   -1.33905240
 C                 -3.88142847    1.62967130   -2.59808357
 H                 -4.23974620    2.63789075   -2.59947996
 H                 -2.81143039    1.63142370   -2.59706470
 H                 -4.23643547    1.12377124   -3.47154517
 C                 -6.45038262    2.35288206   -1.34322404
 H                 -5.83916452    2.94919971   -0.69846230
 H                 -6.40849235    2.74531378   -2.33778050
 H                 -7.46174180    2.37237593   -0.99440805
 C                 -3.88372983    1.63223415   -0.08327649
 H                 -4.26605742    1.14673822    0.79023327
 H                 -2.81417211    1.60658584   -0.06629286
 H                 -4.21588561    2.64923093   -0.10030871

