%chk=beta_2.chk
%nproc=6
%mem=1gb
#p  hf/6-31g(d,p) 5d 7f pop=npa charge nosymm 

Atom number=55

0   1
c   -28.92011103   -0.10957075    0.40842711
o   -28.95071106   -0.89272938    1.39294189
n   -27.79756193    0.02248095   -0.30676127
c   -26.59860648   -0.74574567    0.05777073
c   -25.34084859    0.05079684   -0.33544078
o   -25.37453753    0.83347782   -1.32024688
n   -24.21266043   -0.08851648    0.36951011
c   -23.01400434    0.67529095   -0.00513183
c   -23.01089409    2.02279208    0.74037059
c   -26.60640476   -2.09404775   -0.68625187
c   -21.75464747   -0.12467167    0.37589694
o   -21.78077866   -0.90888683    1.35973061
n   -20.63281400    0.01470798   -0.33914568
c   -19.42916758   -0.74611779    0.02558019
c   -18.17588033    0.05841713   -0.36633878
o   -18.21307112    0.84079634   -1.35122805
n   -17.04789203   -0.07397281    0.34036862
c   -15.85266112    0.69659926   -0.03174289
c   -15.85891261    2.04442139    0.71319459
c   -19.42819880   -2.09414299   -0.71902108
c   -14.58993554   -0.09650152    0.35300664
o   -14.61516027   -0.88108862    1.33654158
n   -13.46625697    0.04882560   -0.35813501
c   -12.26060756   -0.70772358    0.00933655
c   -11.00896958    0.10188677   -0.37723903
o   -11.04609560    0.88685584   -1.36012807
c   -12.25192619   -2.05434748   -0.73772470
o    -9.91295445   -0.02574276    0.31254415
h   -27.77391109    0.64422092   -1.08962406
h   -24.18479271   -0.71166951    1.15111005
h   -20.61293610    0.63684480   -1.12181425
h   -17.01782543   -0.69687498    1.12205073
h   -13.44635633    0.67229780   -1.13971313
h   -26.59440733   -0.92099605    1.11334726
h   -23.01876762    0.85140986   -1.06051668
h   -19.42453110   -0.92175130    1.08103723
h   -15.85573906    0.87240344   -1.08720598
h   -12.25870636   -0.88517446    1.06451874
h   -29.79204578    0.45104474    0.14321010
h   -13.12156044   -2.61688295   -0.46911276
h   -11.37432661   -2.60494402   -0.47026516
h   -12.25382395   -1.87685506   -1.79289696
h   -16.73625128    2.59555590    0.44590208
h   -14.98898493    2.60555186    0.44260872
h   -15.85592210    1.86861426    1.76863982
h   -20.29920458   -2.65272994   -0.44653879
h   -18.55192429   -2.64775115   -0.45337636
h   -19.43282300   -1.91859011   -1.77450535
h   -23.88588443    2.57884226    0.47562253
h   -22.13860563    2.57925996    0.46773647
h   -23.00608464    1.84652552    1.79575177
h   -27.48062171   -2.64717984   -0.41294921
h   -25.73334779   -2.65287191   -0.42094504
h   -26.61066487   -1.91888468   -1.74179632
h    -9.13268089    0.47906053    0.07169634

  -31.37754044    -0.06004522     0.40218815    -0.709488   
  -30.17893174     0.87251768    -1.02882779     0.266668   
  -30.17499615     0.69726489     0.02672781    -0.095061   
  -32.50543829     0.08362068    -0.30246823     0.804088   
  -32.53684167     0.86696814    -1.28680063    -0.758462   
  -31.35243531    -0.68259063     1.18438064     0.459474   
  -30.16431954     2.04548029     0.77087064    -0.642384   
  -29.28888196     2.59674987     0.49767250     0.239746   
  -30.16050049     1.87025712     1.82641317     0.234866   
  -31.03614071     2.60622754     0.50555805     0.238963   
  -33.76534090    -0.70962604     0.09099903    -0.301645   
  -34.34129416    -0.14032862     0.79033893     0.280384   
  -33.47708669    -1.63791452     0.53835734     0.263219   
  -34.57268696    -0.97364810    -1.10871180    -0.774672   
  -34.03433082    -1.50560911    -1.76232640     0.482860   
  -35.39075971    -1.48884766    -0.85321049     0.477425   
  -34.84215795    -0.10611349    -1.52673020     0.495972   


