%chk=0.chk
%nproc=4
%njobs=2
#p HF/6-31g** 5D 7F

gebf{dis=3.0 frag=auto charge=npa}

0 1
O 8.392325 -11.812941 -11.200483
H 8.175276 -12.537815 -10.614239
H 9.252154 -11.5141 -10.904475
O 10.706017 -10.848862 -10.091512
H 11.521407 -11.32028 -9.920812
H 10.567797 -10.316883 -9.307849
O 8.693246 -14.069272 -9.547113
H 8.22009 -13.732742 -8.786125
H 8.552802 -15.015659 -9.517782
O 7.250284 -9.859627 -13.103456
H 7.12066 -10.221473 -13.980096
H 7.341484 -10.626744 -12.538261
O 5.570392 -12.760041 -10.733807
H 4.642708 -12.827827 -10.507888
H 5.983752 -12.40517 -9.946767
O 6.966193 -9.247795 -10.274305
H 6.975152 -9.845016 -11.022289
H 7.684375 -8.638472 -10.445098
O 6.942642 -11.829381 -8.371044
H 7.495574 -12.091052 -7.634819
H 7.307461 -10.99284 -8.659728
O 9.739714 -14.560219 -13.084136
H 9.436683 -13.920876 -12.43943
H 10.652707 -14.322974 -13.246584
O 10.084912 -9.602997 -13.69441
H 9.837963 -9.877914 -14.577398
H 9.267108 -9.62837 -13.197635
O 9.473772 -7.997188 -10.918041
H 9.99752 -8.795627 -10.851588
H 9.62339 -7.542356 -10.089201
O 8.451586 -10.635579 -15.685931
H 8.125035 -10.406856 -16.556152
H 9.262189 -11.116608 -15.852568
O 4.039142 -11.224262 -12.80441
H 4.524844 -12.047609 -12.755179
H 4.432119 -10.757539 -13.541956
O 5.584754 -15.592165 -11.469857
H 4.678503 -15.34832 -11.658221
H 6.003083 -14.77354 -11.203238
O 8.801253 -12.425877 -6.497294
H 9.055634 -11.748983 -5.870127
H 8.939496 -13.249901 -6.030278
O 10.55231 -9.060178 -7.765728
H 10.02956 -9.452633 -7.066484
H 10.057649 -8.283933 -8.028378
O 8.491932 -14.159618 -15.711024
H 8.843942 -15.04372 -15.814399
H 8.918348 -13.822113 -14.923311
O 10.675204 -11.925165 -15.819193
H 11.145373 -12.259719 -15.055487
H 10.769363 -12.612255 -16.478945
O 7.759345 -16.504968 -13.246021
H 7.307919 -16.211137 -12.454749
H 8.537292 -15.949757 -13.298681
O 13.457564 -11.773284 -9.774029
H 13.908886 -10.996207 -10.103715
H 14.150775 -12.423635 -9.661183
O 5.59138 -15.533488 -8.700217
H 6.309279 -16.070726 -8.365208
H 5.476258 -15.823936 -9.604992
O 5.339755 -11.212242 -15.474518
H 5.880078 -10.458674 -15.712045
H 5.489557 -11.8457 -16.176318
O 12.996031 -14.71385 -11.210036
H 12.28642 -15.161884 -10.749655
H 13.635659 -14.51236 -10.527021
O 4.641258 -8.138278 -12.671145
H 4.597809 -7.272042 -12.266198
H 5.576498 -8.338407 -12.709967
O 8.96114 -17.01674 -9.275474
H 8.673584 -17.219063 -8.385188
H 8.302553 -17.423375 -9.838628
O 12.890023 -9.690601 -13.751128
H 13.488436 -9.845906 -13.020365
H 12.017146 -9.74274 -13.361769
O 4.906964 -7.910014 -9.130039
H 4.06352 -8.026505 -9.567378
H 5.42273 -8.670974 -9.396791
O 2.954727 -12.702446 -9.875706
H 3.064054 -13.504841 -9.365369
H 2.738448 -12.032883 -9.226753
O 4.210768 -13.330605 -7.554598
H 4.963781 -12.745268 -7.47346
H 4.583488 -14.161788 -7.84862
O 8.538876 -6.261102 -12.948352
H 8.880032 -6.849136 -12.274511
H 9.276723 -6.122958 -13.542264
O 11.471495 -15.355316 -7.518016
H 10.864403 -15.35575 -8.258065
H 11.907538 -14.504542 -7.565812
O 12.813764 -13.018467 -7.366324
H 12.4819 -12.417138 -6.699613
H 12.65515 -12.568166 -8.195965
O 11.324452 -17.011592 -10.76277
H 11.716545 -17.863306 -10.570212
H 10.44278 -17.064361 -10.39385

